(set-logic QF_S)
(declare-fun var0 () String)
(declare-fun var1 () Int)
(declare-fun var2 () String)
(declare-fun var3 () Int)
(declare-fun var4 () Int)
(declare-fun var5 () String)
(declare-fun var6 () Int)
(declare-fun var7 () String)
(assert (str.prefixof (str.at var0 var1) (str.substr var2 var3 var4)))
(assert (str.prefixof (str.substr var5 var6 var4) (str.replace var7 var5 var7)))
(assert (< (str.indexof var5 var0 var6) (str.to.int var7)))
(assert (> var3 var1))
(check-sat)